p tw 130 300
0 1
0 2
0 6
0 7
0 8
0 9
0 19
0 20
0 53
0 54
0 80
0 83
0 62
0 85
0 95
0 118
0 120
0 121
0 65
0 78
0 111
0 125
1 2
1 25
1 28
2 32
2 33
3 4
3 5
3 32
3 70
4 5
5 34
5 35
5 26
5 47
5 56
5 98
5 99
5 108
5 24
5 115
6 7
7 32
7 58
8 9
8 48
8 49
10 11
10 12
11 12
11 50
11 71
12 28
12 29
12 40
12 41
12 57
12 58
12 65
12 66
12 63
12 70
12 87
12 88
12 83
12 89
13 14
13 15
13 36
13 37
14 15
14 50
14 51
15 21
15 22
15 39
15 52
15 59
15 60
15 76
15 77
15 27
15 86
15 95
15 96
15 55
15 103
15 85
15 105
15 23
15 104
15 40
15 67
16 17
16 18
16 23
16 24
16 38
16 39
16 22
16 44
16 67
16 68
16 57
16 82
16 88
16 102
16 45
16 109
16 73
16 114
16 106
16 122
16 76
16 92
16 84
16 129
17 18
17 32
17 99
19 20
20 32
20 45
21 22
21 25
21 71
22 44
23 24
23 104
24 115
25 26
25 27
25 30
25 31
25 42
25 43
25 48
25 74
25 34
25 75
25 79
25 97
25 71
25 106
25 107
25 64
25 113
25 28
25 60
25 72
26 27
26 47
27 86
28 29
30 31
30 37
30 105
32 33
32 45
32 46
32 47
32 61
32 62
32 78
32 79
32 99
32 43
32 52
32 112
32 117
32 116
32 119
32 58
32 70
33 50
33 69
34 35
34 75
36 37
37 80
37 81
37 74
37 84
37 105
37 98
37 116
37 75
37 87
37 114
37 128
37 41
37 94
38 39
38 49
38 126
39 52
40 41
40 67
41 94
42 43
43 52
45 109
46 47
48 49
48 74
49 72
49 73
49 66
49 90
49 91
49 92
49 93
49 94
49 101
49 104
49 82
49 110
49 108
49 111
49 89
49 112
49 109
49 123
49 86
49 124
49 118
49 122
49 126
49 51
49 121
50 51
50 55
50 56
50 63
50 64
50 69
50 71
50 100
50 101
50 54
50 91
50 123
50 127
51 121
53 54
54 91
55 56
55 103
56 98
57 58
57 82
59 60
60 72
61 62
62 85
63 64
63 70
64 113
65 66
65 78
66 90
67 68
72 73
73 114
74 84
75 87
76 77
76 92
78 79
79 97
80 81
80 83
82 110
83 89
84 129
85 105
86 124
87 88
88 102
89 112
91 92
93 94
95 96
95 118
98 116
99 108
100 101
101 104
106 107
106 122
108 111
109 123
111 125
112 117
114 128
116 119
118 122
120 121
123 127
